number of jobs, number of machines, initial seed, upper bound and lower bound :
10           10   0000        0000        0000
processing times :
 4 33 45 27 62 62 85 77 49 89
 21 42 20 48 48 74 97 62 78 20
 18 32 80 78 58 77 86 38 92 43
 19 43 39 24 85 79 60 84 43 21
 64 57 51 81 96 59 75 32 20 54
 93 41 56 35 79 93 9 42 1 3
 90 48 55 76 81 17 40 35 38 71
 77 76 19 17 50 51 11 13 45 64
 20 87 71 36 76 72 52 81 36 45
 13 97 79 13 82 35 73 15 46 96
